Translating instance to solver...

Set parameter TimeLimit to value 28800
Gurobi Optimizer version 11.0.2 build v11.0.2rc0 (linux64 - "Ubuntu 22.04.4 LTS")

CPU model: Intel(R) Xeon(R) Gold 5120 CPU @ 2.20GHz, instruction set [SSE2|AVX|AVX2|AVX512]
Thread count: 28 physical cores, 56 logical processors, using up to 28 threads

Academic license 2463511 - for non-commercial use only - registered to lu___@cefet-rj.br
Optimize a model with 85165 rows, 41523 columns and 194718 nonzeros
Model fingerprint: 0xf094929e
Variable types: 1 continuous, 41522 integer (41460 binary)
Coefficient statistics:
  Matrix range     [1e+00, 1e+05]
  Objective range  [3e-01, 8e-01]
  Bounds range     [1e+00, 6e+01]
  RHS range        [1e+00, 6e+01]
Presolve removed 69243 rows and 34979 columns
Presolve time: 1.28s
Presolved: 15922 rows, 6544 columns, 46489 nonzeros
Variable types: 0 continuous, 6544 integer (6483 binary)

Root relaxation: objective 9.176730e-01, 329 iterations, 0.02 seconds (0.02 work units)

    Nodes    |    Current Node    |     Objective Bounds      |     Work
 Expl Unexpl |  Obj  Depth IntInf | Incumbent    BestBd   Gap | It/Node Time

     0     0    0.91767    0   12          -    0.91767      -     -    1s
H    0     0                       2.5735640    0.91767  64.3%     -    2s
     0     0    0.91767    0   38    2.57356    0.91767  64.3%     -    2s
H    0     0                       1.3676730    0.91767  32.9%     -    2s
H    0     0                       0.9176730    0.91767  0.00%     -    2s
     0     0    0.91767    0   21    0.91767    0.91767  0.00%     -    2s

Cutting planes:
  Learned: 1
  Cover: 1
  Implied bound: 13
  Clique: 2
  MIR: 34
  RLT: 2
  Relax-and-lift: 1

Explored 1 nodes (1345 simplex iterations) in 2.73 seconds (2.08 work units)
Thread count was 28 (of 56 available processors)

Solution count 3: 0.917673 1.36767 2.57356 

Optimal solution found (tolerance 1.00e-04)
Best objective 9.176730000000e-01, best bound 9.176730000000e-01, gap 0.0000%

Solver Wallclock Time (for this epsilon): 2.7333731651306152 s
Python wallclock Time (for this epsilon): 9.35713529586792 s


Total Elapsed Time (since program call): 350.1087210178375 s

Results:

I = 0.9176730000000001 mA
C = 15.0 points
C ~= 6.0 km^2

Minimum Epsilon for this instance = 10
Maximum Epsilon for this instance = 100

Current Epsilon = 10


Preprocessing Time (for this epsilon): 0.010261297225952148 s


Updated solution vectors:
sol_I = [-0.9176730000000001]
sol_C = [15.0]
sol_eps = [10]
sol_gap = [0.0]
